1437589
1 24 54636
24 17 276644
17 10 52693
10 23 54017
23 12 132796
12 8 61690
8 27 98591
27 7 7369
7 3 5029
3 21 168123
21 15 19591
15 6 10550
6 30 7944
30 2 6203
2 28 6275
28 29 52269
29 4 53284
4 9 8394
9 18 9869
18 25 7367
25 13 1644
13 5 6993
5 14 14271
14 26 12452
26 16 23200
16 11 17049
11 22 10309
22 19 8374
19 20 59142
20 1 190821
